
param r := 2;
param T := 2; #numero di processi
param t_max := 30;
param D := 
		1 9 
		2 3
		3 12
		4 21;

# righe = processi, colonne = processori
param p : 1   2   3   4:=
		1 2   5   1   3         
		2 4   6   2   1      
		3 3   7   4   2
		4 9   5   3   4;
